instances/knapsack/discrete_knapsack_uncertainty/knapsack_80_10.lp
\ Model knapsack_80_10
\ LP format - for model browsing. Use MPS format to capture full model detail.
\ Signature: 0xf86d0bbf74a39a5e
Minimize
  - 87 x[0] - 40 x[1] - 25 x[2] - 77 x[3] - 67 x[4] - 10 x[5] - 15 x[6]
   - 81 x[7] - 96 x[8] - 52 x[9] - 28 x[10] - 24 x[11] - 92 x[12]
   - 51 x[13] - 84 x[14] - 49 x[15] - 47 x[16] - 43 x[17] - 88 x[18]
   - 47 x[19] - 39 x[20] - 16 x[21] - 81 x[22] - 61 x[23] - 78 x[24]
   - 52 x[25] - 69 x[26] - 89 x[27] - 3 x[28] - 74 x[29] - 90 x[30]
   - 21 x[31] - 5 x[32] - 68 x[33] - 89 x[34] - 42 x[35] - 82 x[36]
   - 96 x[37] - 4 x[38] - 41 x[39] - 93 x[40] - 83 x[41] - 39 x[42]
   - 28 x[43] - 88 x[44] - 48 x[45] - 70 x[46] - 10 x[47] - 10 x[48]
   - 71 x[49] - 96 x[50] - 32 x[51] - 20 x[52] - 98 x[53] - 41 x[54]
   - 67 x[55] - 4 x[56] - 97 x[57] - 13 x[58] - 52 x[59] - 61 x[60]
   - 75 x[61] - 7 x[62] - 7 x[63] - 72 x[64] - 82 x[65] - 62 x[66]
   - 59 x[67] - 26 x[68] - 23 x[69] - 58 x[70] - 72 x[71] - 26 x[72]
   - 91 x[73] - 12 x[74] - 59 x[75] - 35 x[76] - 70 x[77] - 9 x[78]
   - 41 x[79]
Subject To
 primal_upper: 5 x[0] + 37 x[1] + 11 x[2] + 68 x[3] + 29 x[4] + 71 x[5]
   + 34 x[6] + 69 x[7] + 54 x[8] + 35 x[9] + 25 x[10] + 64 x[11] + 5 x[12]
   + 89 x[13] + 46 x[14] + 70 x[15] + 30 x[16] + 61 x[17] + 58 x[18]
   + 95 x[19] + 10 x[20] + 61 x[21] + 65 x[22] + 100 x[23] + 86 x[24]
   + 77 x[25] + 71 x[26] + 9 x[27] + 75 x[28] + 44 x[29] + 67 x[30]
   + 33 x[31] + 73 x[32] + 86 x[33] + 9 x[34] + 66 x[35] + 45 x[36]
   + 50 x[37] + 69 x[38] + 40 x[39] + 80 x[40] + 91 x[41] + 19 x[42]
   + 23 x[43] + 92 x[44] + 4 x[45] + 15 x[46] + 15 x[47] + 72 x[48]
   + 81 x[49] + 12 x[50] + 25 x[51] + 78 x[52] + 41 x[53] + 82 x[54]
   + 17 x[55] + 50 x[56] + 8 x[57] + 89 x[58] + 3 x[59] + 6 x[60]
   + 88 x[61] + 85 x[62] + 36 x[63] + x[64] + 89 x[65] + 30 x[66]
   + 60 x[67] + 45 x[68] + 47 x[69] + 51 x[70] + 67 x[71] + 7 x[72]
   + 4 x[73] + 61 x[74] + 58 x[75] + 4 x[76] + 48 x[77] + 10 x[78]
   + 84 x[79] + 0.5 r[0] + 3.7 r[1] + 1.1 r[2] + 6.8 r[3] + 2.9 r[4]
   + 7.1 r[5] + 3.4 r[6] + 6.9 r[7] + 5.4 r[8] + 3.5 r[9] + 2.5 r[10]
   + 6.4 r[11] + 0.5 r[12] + 8.9 r[13] + 4.6 r[14] + 7 r[15] + 3 r[16]
   + 6.1 r[17] + 5.8 r[18] + 9.5 r[19] + r[20] + 6.1 r[21] + 6.5 r[22]
   + 10 r[23] + 8.6 r[24] + 7.7 r[25] + 7.1 r[26] + 0.9 r[27] + 7.5 r[28]
   + 4.4 r[29] + 6.7 r[30] + 3.3 r[31] + 7.3 r[32] + 8.6 r[33] + 0.9 r[34]
   + 6.6 r[35] + 4.5 r[36] + 5 r[37] + 6.9 r[38] + 4 r[39] + 8 r[40]
   + 9.1 r[41] + 1.9 r[42] + 2.3 r[43] + 9.2 r[44] + 0.4 r[45] + 1.5 r[46]
   + 1.5 r[47] + 7.2 r[48] + 8.1 r[49] + 1.2 r[50] + 2.5 r[51] + 7.8 r[52]
   + 4.1 r[53] + 8.2 r[54] + 1.7 r[55] + 5 r[56] + 0.8 r[57] + 8.9 r[58]
   + 0.3 r[59] + 0.6 r[60] + 8.8 r[61] + 8.5 r[62] + 3.6 r[63] + 0.1 r[64]
   + 8.9 r[65] + 3 r[66] + 6 r[67] + 4.5 r[68] + 4.7 r[69] + 5.1 r[70]
   + 6.7 r[71] + 0.7 r[72] + 0.4 r[73] + 6.1 r[74] + 5.8 r[75] + 0.4 r[76]
   + 4.8 r[77] + r[78] + 8.4 r[79] <= 368
 primal_lower: 2.772143663639116 x[0] + 1.755552267264621 x[1]
   + 4.70619551335377 x[2] + 1.094299130394425 x[3]
   + 3.181589810369794 x[4] + 3.735246203792362 x[5]
   + 1.972072127686636 x[6] + 3.028840596048602 x[7]
   + 2.962654130155119 x[8] + 1.972228295098694 x[9]
   + 1.381349065369534 x[10] + 2.722279896079451 x[11]
   + 2.463632173570418 x[12] + 4.569066629137162 x[13]
   + 2.063249285522415 x[14] + 0.4743230355979173 x[15]
   + 0.1982733674092882 x[16] + 2.895260664135697 x[17]
   + 2.908190525892058 x[18] + 2.498883274413717 x[19]
   + 3.027066476649894 x[20] + 0.6640763438853794 x[21]
   + 0.6295518100609895 x[22] + 2.288997657148454 x[23]
   + 2.802094602628247 x[24] + 0.433772215083793 x[25]
   + 2.063964947594115 x[26] + 2.937446632607769 x[27]
   + 4.352356317778754 x[28] + 2.269887307416704 x[29]
   + 1.807601142217852 x[30] + 4.358070528781515 x[31]
   + 0.6211833899247399 x[32] + 1.407538487546055 x[33]
   + 3.63397095465097 x[34] + 4.232456725991661 x[35]
   + 3.679032538976133 x[36] + 2.133288455449714 x[37]
   + 2.160727928527408 x[38] + 2.270348017560011 x[39]
   + 1.014132797995162 x[40] + 2.582882764840797 x[41]
   + 4.819767027312949 x[42] + 1.278049170840442 x[43]
   + 4.833152926889499 x[44] + 1.828350292983029 x[45]
   + 0.932967440649327 x[46] + 4.729800683135033 x[47]
   + 1.414368757690772 x[48] + 4.581828902685828 x[49]
   + 3.568027018422747 x[50] + 1.302960065428042 x[51]
   + 3.306670929995519 x[52] + 3.630605972520146 x[53]
   + 3.90047316657477 x[54] + 2.391563797859725 x[55]
   + 2.257429877428402 x[56] + 2.860644952736041 x[57]
   + 0.6487567310123498 x[58] + 3.602318500200183 x[59]
   + 3.64105380734238 x[60] + 3.254951204275492 x[61]
   + 4.86724200620182 x[62] + 0.459117138491187 x[63]
   + 3.25206147704588 x[64] + 4.433488941267335 x[65]
   + 4.717858277731303 x[66] + 4.895971622781514 x[67]
   + 0.1476672104505646 x[68] + 1.653260179762624 x[69]
   + 0.3478799807723523 x[70] + 1.996456383477851 x[71]
   + 1.515635322276446 x[72] + 0.9391560007808202 x[73]
   + 1.99947272156339 x[74] + 1.082740695434295 x[75]
   + 2.775870136712752 x[76] + 4.391800096296912 x[77]
   + 4.097218485021515 x[78] + 0.5564843429754003 x[79] + 89 u[0] + 29 u[1]
   + 71 u[2] + 24 u[3] + 29 u[4] + 67 u[5] + 22 u[6] + 93 u[7] + 90 u[8]
   + 67 u[9] + 45 u[10] + 68 u[11] + 81 u[12] + 33 u[13] + 82 u[14]
   + 94 u[15] + 66 u[16] + 33 u[17] + 98 u[18] + 59 u[19] + 86 u[20]
   + 13 u[21] + 61 u[22] + 52 u[23] + 26 u[24] + 85 u[25] + 31 u[26]
   + 17 u[27] + 31 u[28] + 28 u[29] + 71 u[30] + 33 u[31] + 57 u[32]
   + 82 u[33] + 93 u[34] + 22 u[35] + 69 u[36] + 70 u[37] + 89 u[38]
   + 12 u[39] + 12 u[40] + 91 u[41] + 91 u[42] + 51 u[43] + 12 u[44]
   + 100 u[45] + 91 u[46] + 7 u[47] + 44 u[48] + 73 u[49] + 84 u[50]
   + 41 u[51] + 86 u[52] + 49 u[53] + 30 u[54] + 81 u[55] + 18 u[56]
   + 24 u[57] + 29 u[58] + 83 u[59] + 2 u[60] + 76 u[61] + 45 u[62]
   + 56 u[63] + u[64] + 29 u[65] + 66 u[66] + 4 u[67] + 81 u[68] + 27 u[69]
   + 15 u[70] + 91 u[71] + 67 u[72] + 4 u[73] + 29 u[74] + 2 u[75]
   + 8 u[76] + 84 u[77] + 42 u[78] + 24 u[79] <= 43196
 mccormick1[0]: - u[0] + r[0] <= 0
 mccormick1[1]: - u[1] + r[1] <= 0
 mccormick1[2]: - u[2] + r[2] <= 0
 mccormick1[3]: - u[3] + r[3] <= 0
 mccormick1[4]: - u[4] + r[4] <= 0
 mccormick1[5]: - u[5] + r[5] <= 0
 mccormick1[6]: - u[6] + r[6] <= 0
 mccormick1[7]: - u[7] + r[7] <= 0
 mccormick1[8]: - u[8] + r[8] <= 0
 mccormick1[9]: - u[9] + r[9] <= 0
 mccormick1[10]: - u[10] + r[10] <= 0
 mccormick1[11]: - u[11] + r[11] <= 0
 mccormick1[12]: - u[12] + r[12] <= 0
 mccormick1[13]: - u[13] + r[13] <= 0
 mccormick1[14]: - u[14] + r[14] <= 0
 mccormick1[15]: - u[15] + r[15] <= 0
 mccormick1[16]: - u[16] + r[16] <= 0
 mccormick1[17]: - u[17] + r[17] <= 0
 mccormick1[18]: - u[18] + r[18] <= 0
 mccormick1[19]: - u[19] + r[19] <= 0
 mccormick1[20]: - u[20] + r[20] <= 0
 mccormick1[21]: - u[21] + r[21] <= 0
 mccormick1[22]: - u[22] + r[22] <= 0
 mccormick1[23]: - u[23] + r[23] <= 0
 mccormick1[24]: - u[24] + r[24] <= 0
 mccormick1[25]: - u[25] + r[25] <= 0
 mccormick1[26]: - u[26] + r[26] <= 0
 mccormick1[27]: - u[27] + r[27] <= 0
 mccormick1[28]: - u[28] + r[28] <= 0
 mccormick1[29]: - u[29] + r[29] <= 0
 mccormick1[30]: - u[30] + r[30] <= 0
 mccormick1[31]: - u[31] + r[31] <= 0
 mccormick1[32]: - u[32] + r[32] <= 0
 mccormick1[33]: - u[33] + r[33] <= 0
 mccormick1[34]: - u[34] + r[34] <= 0
 mccormick1[35]: - u[35] + r[35] <= 0
 mccormick1[36]: - u[36] + r[36] <= 0
 mccormick1[37]: - u[37] + r[37] <= 0
 mccormick1[38]: - u[38] + r[38] <= 0
 mccormick1[39]: - u[39] + r[39] <= 0
 mccormick1[40]: - u[40] + r[40] <= 0
 mccormick1[41]: - u[41] + r[41] <= 0
 mccormick1[42]: - u[42] + r[42] <= 0
 mccormick1[43]: - u[43] + r[43] <= 0
 mccormick1[44]: - u[44] + r[44] <= 0
 mccormick1[45]: - u[45] + r[45] <= 0
 mccormick1[46]: - u[46] + r[46] <= 0
 mccormick1[47]: - u[47] + r[47] <= 0
 mccormick1[48]: - u[48] + r[48] <= 0
 mccormick1[49]: - u[49] + r[49] <= 0
 mccormick1[50]: - u[50] + r[50] <= 0
 mccormick1[51]: - u[51] + r[51] <= 0
 mccormick1[52]: - u[52] + r[52] <= 0
 mccormick1[53]: - u[53] + r[53] <= 0
 mccormick1[54]: - u[54] + r[54] <= 0
 mccormick1[55]: - u[55] + r[55] <= 0
 mccormick1[56]: - u[56] + r[56] <= 0
 mccormick1[57]: - u[57] + r[57] <= 0
 mccormick1[58]: - u[58] + r[58] <= 0
 mccormick1[59]: - u[59] + r[59] <= 0
 mccormick1[60]: - u[60] + r[60] <= 0
 mccormick1[61]: - u[61] + r[61] <= 0
 mccormick1[62]: - u[62] + r[62] <= 0
 mccormick1[63]: - u[63] + r[63] <= 0
 mccormick1[64]: - u[64] + r[64] <= 0
 mccormick1[65]: - u[65] + r[65] <= 0
 mccormick1[66]: - u[66] + r[66] <= 0
 mccormick1[67]: - u[67] + r[67] <= 0
 mccormick1[68]: - u[68] + r[68] <= 0
 mccormick1[69]: - u[69] + r[69] <= 0
 mccormick1[70]: - u[70] + r[70] <= 0
 mccormick1[71]: - u[71] + r[71] <= 0
 mccormick1[72]: - u[72] + r[72] <= 0
 mccormick1[73]: - u[73] + r[73] <= 0
 mccormick1[74]: - u[74] + r[74] <= 0
 mccormick1[75]: - u[75] + r[75] <= 0
 mccormick1[76]: - u[76] + r[76] <= 0
 mccormick1[77]: - u[77] + r[77] <= 0
 mccormick1[78]: - u[78] + r[78] <= 0
 mccormick1[79]: - u[79] + r[79] <= 0
 mccormick2[0]: - x[0] + r[0] <= 0
 mccormick2[1]: - x[1] + r[1] <= 0
 mccormick2[2]: - x[2] + r[2] <= 0
 mccormick2[3]: - x[3] + r[3] <= 0
 mccormick2[4]: - x[4] + r[4] <= 0
 mccormick2[5]: - x[5] + r[5] <= 0
 mccormick2[6]: - x[6] + r[6] <= 0
 mccormick2[7]: - x[7] + r[7] <= 0
 mccormick2[8]: - x[8] + r[8] <= 0
 mccormick2[9]: - x[9] + r[9] <= 0
 mccormick2[10]: - x[10] + r[10] <= 0
 mccormick2[11]: - x[11] + r[11] <= 0
 mccormick2[12]: - x[12] + r[12] <= 0
 mccormick2[13]: - x[13] + r[13] <= 0
 mccormick2[14]: - x[14] + r[14] <= 0
 mccormick2[15]: - x[15] + r[15] <= 0
 mccormick2[16]: - x[16] + r[16] <= 0
 mccormick2[17]: - x[17] + r[17] <= 0
 mccormick2[18]: - x[18] + r[18] <= 0
 mccormick2[19]: - x[19] + r[19] <= 0
 mccormick2[20]: - x[20] + r[20] <= 0
 mccormick2[21]: - x[21] + r[21] <= 0
 mccormick2[22]: - x[22] + r[22] <= 0
 mccormick2[23]: - x[23] + r[23] <= 0
 mccormick2[24]: - x[24] + r[24] <= 0
 mccormick2[25]: - x[25] + r[25] <= 0
 mccormick2[26]: - x[26] + r[26] <= 0
 mccormick2[27]: - x[27] + r[27] <= 0
 mccormick2[28]: - x[28] + r[28] <= 0
 mccormick2[29]: - x[29] + r[29] <= 0
 mccormick2[30]: - x[30] + r[30] <= 0
 mccormick2[31]: - x[31] + r[31] <= 0
 mccormick2[32]: - x[32] + r[32] <= 0
 mccormick2[33]: - x[33] + r[33] <= 0
 mccormick2[34]: - x[34] + r[34] <= 0
 mccormick2[35]: - x[35] + r[35] <= 0
 mccormick2[36]: - x[36] + r[36] <= 0
 mccormick2[37]: - x[37] + r[37] <= 0
 mccormick2[38]: - x[38] + r[38] <= 0
 mccormick2[39]: - x[39] + r[39] <= 0
 mccormick2[40]: - x[40] + r[40] <= 0
 mccormick2[41]: - x[41] + r[41] <= 0
 mccormick2[42]: - x[42] + r[42] <= 0
 mccormick2[43]: - x[43] + r[43] <= 0
 mccormick2[44]: - x[44] + r[44] <= 0
 mccormick2[45]: - x[45] + r[45] <= 0
 mccormick2[46]: - x[46] + r[46] <= 0
 mccormick2[47]: - x[47] + r[47] <= 0
 mccormick2[48]: - x[48] + r[48] <= 0
 mccormick2[49]: - x[49] + r[49] <= 0
 mccormick2[50]: - x[50] + r[50] <= 0
 mccormick2[51]: - x[51] + r[51] <= 0
 mccormick2[52]: - x[52] + r[52] <= 0
 mccormick2[53]: - x[53] + r[53] <= 0
 mccormick2[54]: - x[54] + r[54] <= 0
 mccormick2[55]: - x[55] + r[55] <= 0
 mccormick2[56]: - x[56] + r[56] <= 0
 mccormick2[57]: - x[57] + r[57] <= 0
 mccormick2[58]: - x[58] + r[58] <= 0
 mccormick2[59]: - x[59] + r[59] <= 0
 mccormick2[60]: - x[60] + r[60] <= 0
 mccormick2[61]: - x[61] + r[61] <= 0
 mccormick2[62]: - x[62] + r[62] <= 0
 mccormick2[63]: - x[63] + r[63] <= 0
 mccormick2[64]: - x[64] + r[64] <= 0
 mccormick2[65]: - x[65] + r[65] <= 0
 mccormick2[66]: - x[66] + r[66] <= 0
 mccormick2[67]: - x[67] + r[67] <= 0
 mccormick2[68]: - x[68] + r[68] <= 0
 mccormick2[69]: - x[69] + r[69] <= 0
 mccormick2[70]: - x[70] + r[70] <= 0
 mccormick2[71]: - x[71] + r[71] <= 0
 mccormick2[72]: - x[72] + r[72] <= 0
 mccormick2[73]: - x[73] + r[73] <= 0
 mccormick2[74]: - x[74] + r[74] <= 0
 mccormick2[75]: - x[75] + r[75] <= 0
 mccormick2[76]: - x[76] + r[76] <= 0
 mccormick2[77]: - x[77] + r[77] <= 0
 mccormick2[78]: - x[78] + r[78] <= 0
 mccormick2[79]: - x[79] + r[79] <= 0
 mccormick3[0]: x[0] + u[0] - r[0] <= 1
 mccormick3[1]: x[1] + u[1] - r[1] <= 1
 mccormick3[2]: x[2] + u[2] - r[2] <= 1
 mccormick3[3]: x[3] + u[3] - r[3] <= 1
 mccormick3[4]: x[4] + u[4] - r[4] <= 1
 mccormick3[5]: x[5] + u[5] - r[5] <= 1
 mccormick3[6]: x[6] + u[6] - r[6] <= 1
 mccormick3[7]: x[7] + u[7] - r[7] <= 1
 mccormick3[8]: x[8] + u[8] - r[8] <= 1
 mccormick3[9]: x[9] + u[9] - r[9] <= 1
 mccormick3[10]: x[10] + u[10] - r[10] <= 1
 mccormick3[11]: x[11] + u[11] - r[11] <= 1
 mccormick3[12]: x[12] + u[12] - r[12] <= 1
 mccormick3[13]: x[13] + u[13] - r[13] <= 1
 mccormick3[14]: x[14] + u[14] - r[14] <= 1
 mccormick3[15]: x[15] + u[15] - r[15] <= 1
 mccormick3[16]: x[16] + u[16] - r[16] <= 1
 mccormick3[17]: x[17] + u[17] - r[17] <= 1
 mccormick3[18]: x[18] + u[18] - r[18] <= 1
 mccormick3[19]: x[19] + u[19] - r[19] <= 1
 mccormick3[20]: x[20] + u[20] - r[20] <= 1
 mccormick3[21]: x[21] + u[21] - r[21] <= 1
 mccormick3[22]: x[22] + u[22] - r[22] <= 1
 mccormick3[23]: x[23] + u[23] - r[23] <= 1
 mccormick3[24]: x[24] + u[24] - r[24] <= 1
 mccormick3[25]: x[25] + u[25] - r[25] <= 1
 mccormick3[26]: x[26] + u[26] - r[26] <= 1
 mccormick3[27]: x[27] + u[27] - r[27] <= 1
 mccormick3[28]: x[28] + u[28] - r[28] <= 1
 mccormick3[29]: x[29] + u[29] - r[29] <= 1
 mccormick3[30]: x[30] + u[30] - r[30] <= 1
 mccormick3[31]: x[31] + u[31] - r[31] <= 1
 mccormick3[32]: x[32] + u[32] - r[32] <= 1
 mccormick3[33]: x[33] + u[33] - r[33] <= 1
 mccormick3[34]: x[34] + u[34] - r[34] <= 1
 mccormick3[35]: x[35] + u[35] - r[35] <= 1
 mccormick3[36]: x[36] + u[36] - r[36] <= 1
 mccormick3[37]: x[37] + u[37] - r[37] <= 1
 mccormick3[38]: x[38] + u[38] - r[38] <= 1
 mccormick3[39]: x[39] + u[39] - r[39] <= 1
 mccormick3[40]: x[40] + u[40] - r[40] <= 1
 mccormick3[41]: x[41] + u[41] - r[41] <= 1
 mccormick3[42]: x[42] + u[42] - r[42] <= 1
 mccormick3[43]: x[43] + u[43] - r[43] <= 1
 mccormick3[44]: x[44] + u[44] - r[44] <= 1
 mccormick3[45]: x[45] + u[45] - r[45] <= 1
 mccormick3[46]: x[46] + u[46] - r[46] <= 1
 mccormick3[47]: x[47] + u[47] - r[47] <= 1
 mccormick3[48]: x[48] + u[48] - r[48] <= 1
 mccormick3[49]: x[49] + u[49] - r[49] <= 1
 mccormick3[50]: x[50] + u[50] - r[50] <= 1
 mccormick3[51]: x[51] + u[51] - r[51] <= 1
 mccormick3[52]: x[52] + u[52] - r[52] <= 1
 mccormick3[53]: x[53] + u[53] - r[53] <= 1
 mccormick3[54]: x[54] + u[54] - r[54] <= 1
 mccormick3[55]: x[55] + u[55] - r[55] <= 1
 mccormick3[56]: x[56] + u[56] - r[56] <= 1
 mccormick3[57]: x[57] + u[57] - r[57] <= 1
 mccormick3[58]: x[58] + u[58] - r[58] <= 1
 mccormick3[59]: x[59] + u[59] - r[59] <= 1
 mccormick3[60]: x[60] + u[60] - r[60] <= 1
 mccormick3[61]: x[61] + u[61] - r[61] <= 1
 mccormick3[62]: x[62] + u[62] - r[62] <= 1
 mccormick3[63]: x[63] + u[63] - r[63] <= 1
 mccormick3[64]: x[64] + u[64] - r[64] <= 1
 mccormick3[65]: x[65] + u[65] - r[65] <= 1
 mccormick3[66]: x[66] + u[66] - r[66] <= 1
 mccormick3[67]: x[67] + u[67] - r[67] <= 1
 mccormick3[68]: x[68] + u[68] - r[68] <= 1
 mccormick3[69]: x[69] + u[69] - r[69] <= 1
 mccormick3[70]: x[70] + u[70] - r[70] <= 1
 mccormick3[71]: x[71] + u[71] - r[71] <= 1
 mccormick3[72]: x[72] + u[72] - r[72] <= 1
 mccormick3[73]: x[73] + u[73] - r[73] <= 1
 mccormick3[74]: x[74] + u[74] - r[74] <= 1
 mccormick3[75]: x[75] + u[75] - r[75] <= 1
 mccormick3[76]: x[76] + u[76] - r[76] <= 1
 mccormick3[77]: x[77] + u[77] - r[77] <= 1
 mccormick3[78]: x[78] + u[78] - r[78] <= 1
 mccormick3[79]: x[79] + u[79] - r[79] <= 1
Bounds
Binaries
 x[0] x[1] x[2] x[3] x[4] x[5] x[6] x[7] x[8] x[9] x[10] x[11] x[12] x[13]
 x[14] x[15] x[16] x[17] x[18] x[19] x[20] x[21] x[22] x[23] x[24] x[25]
 x[26] x[27] x[28] x[29] x[30] x[31] x[32] x[33] x[34] x[35] x[36] x[37]
 x[38] x[39] x[40] x[41] x[42] x[43] x[44] x[45] x[46] x[47] x[48] x[49]
 x[50] x[51] x[52] x[53] x[54] x[55] x[56] x[57] x[58] x[59] x[60] x[61]
 x[62] x[63] x[64] x[65] x[66] x[67] x[68] x[69] x[70] x[71] x[72] x[73]
 x[74] x[75] x[76] x[77] x[78] x[79] u[0] u[1] u[2] u[3] u[4] u[5] u[6]
 u[7] u[8] u[9] u[10] u[11] u[12] u[13] u[14] u[15] u[16] u[17] u[18] u[19]
 u[20] u[21] u[22] u[23] u[24] u[25] u[26] u[27] u[28] u[29] u[30] u[31]
 u[32] u[33] u[34] u[35] u[36] u[37] u[38] u[39] u[40] u[41] u[42] u[43]
 u[44] u[45] u[46] u[47] u[48] u[49] u[50] u[51] u[52] u[53] u[54] u[55]
 u[56] u[57] u[58] u[59] u[60] u[61] u[62] u[63] u[64] u[65] u[66] u[67]
 u[68] u[69] u[70] u[71] u[72] u[73] u[74] u[75] u[76] u[77] u[78] u[79]
 r[0] r[1] r[2] r[3] r[4] r[5] r[6] r[7] r[8] r[9] r[10] r[11] r[12] r[13]
 r[14] r[15] r[16] r[17] r[18] r[19] r[20] r[21] r[22] r[23] r[24] r[25]
 r[26] r[27] r[28] r[29] r[30] r[31] r[32] r[33] r[34] r[35] r[36] r[37]
 r[38] r[39] r[40] r[41] r[42] r[43] r[44] r[45] r[46] r[47] r[48] r[49]
 r[50] r[51] r[52] r[53] r[54] r[55] r[56] r[57] r[58] r[59] r[60] r[61]
 r[62] r[63] r[64] r[65] r[66] r[67] r[68] r[69] r[70] r[71] r[72] r[73]
 r[74] r[75] r[76] r[77] r[78] r[79]
End
