instances/knapsack/discrete_knapsack_uncertainty/knapsack_80_10.kp
84932
80
368

5 0.5 87
37 3.7 40
11 1.1 25
68 6.8 77
29 2.9 67
71 7.1 10
34 3.4 15
69 6.9 81
54 5.4 96
35 3.5 52
25 2.5 28
64 6.4 24
5 0.5 92
89 8.9 51
46 4.6 84
70 7.0 49
30 3.0 47
61 6.1 43
58 5.8 88
95 9.5 47
10 1.0 39
61 6.1 16
65 6.5 81
100 10.0 61
86 8.6 78
77 7.7 52
71 7.1 69
9 0.9 89
75 7.5 3
44 4.4 74
67 6.7 90
33 3.3 21
73 7.3 5
86 8.6 68
9 0.9 89
66 6.6 42
45 4.5 82
50 5.0 96
69 6.9 4
40 4.0 41
80 8.0 93
91 9.1 83
19 1.9 39
23 2.3 28
92 9.2 88
4 0.4 48
15 1.5 70
15 1.5 10
72 7.2 10
81 8.1 71
12 1.2 96
25 2.5 32
78 7.8 20
41 4.1 98
82 8.2 41
17 1.7 67
50 5.0 4
8 0.8 97
89 8.9 13
3 0.3 52
6 0.6 61
88 8.8 75
85 8.5 7
36 3.6 7
1 0.1 72
89 8.9 82
30 3.0 62
60 6.0 59
45 4.5 26
47 4.7 23
51 5.1 58
67 6.7 72
7 0.7 26
4 0.4 91
61 6.1 12
58 5.8 59
4 0.4 35
48 4.8 70
10 1.0 9
84 8.4 41

43196
392

[2.772143663639116 1.7555522672646209 4.70619551335377 1.0942991303944254 3.181589810369794 3.7352462037923617 1.972072127686636 3.028840596048602 2.962654130155119 1.9722282950986945 1.3813490653695342 2.7222798960794514 2.4636321735704176 4.569066629137162 2.0632492855224154 0.4743230355979173 0.19827336740928816 2.8952606641356966 2.9081905258920577 2.498883274413717 3.027066476649894 0.6640763438853794 0.6295518100609895 2.288997657148454 2.8020946026282467 0.43377221508379304 2.0639649475941146 2.9374466326077693 4.352356317778754 2.269887307416704 1.8076011422178524 4.358070528781515 0.6211833899247399 1.4075384875460546 3.63397095465097 4.232456725991661 3.6790325389761334 2.1332884554497142 2.1607279285274084 2.2703480175600106 1.0141327979951624 2.582882764840797 4.819767027312949 1.278049170840442 4.833152926889499 1.8283502929830289 0.932967440649327 4.729800683135033 1.4143687576907717 4.581828902685828 3.568027018422747 1.3029600654280418 3.3066709299955193 3.630605972520146 3.9004731665747703 2.391563797859725 2.2574298774284016 2.860644952736041 0.6487567310123498 3.6023185002001834 3.64105380734238 3.254951204275492 4.86724200620182 0.45911713849118696 3.2520614770458796 4.433488941267335 4.7178582777313025 4.895971622781514 0.14766721045056458 1.6532601797626243 0.34787998077235227 1.9964563834778515 1.5156353222764465 0.9391560007808202 1.99947272156339 1.0827406954342946 2.7758701367127516 4.391800096296912 4.097218485021515 0.5564843429754003]

[89 29 71 24 29 67 22 93 90 67 45 68 81 33 82 94 66 33 98 59 86 13 61 52 26 85 31 17 31 28 71 33 57 82 93 22 69 70 89 12 12 91 91 51 12 100 91 7 44 73 84 41 86 49 30 81 18 24 29 83 2 76 45 56 1 29 66 4 81 27 15 91 67 4 29 2 8 84 42 24]
